5 6 94
3 3 1 5 2 3 3 12 34 34 64 64 94 
4 5 1 1 1 1 2 1 3 4 22 22 40 40 72 72 92 
3 2 1 3 2 4 2 5 41 41 55 55 87 
3 4 1 2 2 2 3 15 43 44 60 60 94 
7 2 1 4 1 4 1 5 2 5 2 4 2 4 2 0 5 5 9 9 15 18 22 22 25 38 43 43 46 
10 5 1 3 1 3 1 1 1 1 1 3 2 3 2 2 2 3 3 3 3 0 4 4 9 9 12 12 18 18 22 31 34 34 38 41 44 52 55 55 59 
